
Gurobi 6.5.2 (win64) logging started 07/24/16 17:25:26


Gurobi 6.5.2 (win64) logging started 07/24/16 17:25:26

Optimize a model with 2013 rows, 596 columns and 5231 nonzeros
Coefficient statistics:
  Matrix range    [6e-08, 1e+03]
  Objective range [1e+00, 1e+00]
  Bounds range    [1e+00, 1e+00]
  RHS range       [6e-06, 1e+03]
Presolve removed 1807 rows and 381 columns
Presolve time: 0.00s
Presolved: 206 rows, 215 columns, 897 nonzeros
Variable types: 215 continuous, 0 integer (0 binary)

Root relaxation: objective 1.670488e+01, 197 iterations, 0.02 seconds

    Nodes    |    Current Node    |     Objective Bounds      |     Work
 Expl Unexpl |  Obj  Depth IntInf | Incumbent    BestBd   Gap | It/Node Time

*    0     0               0      16.7048811   16.70488  0.00%     -    0s

Explored 0 nodes (197 simplex iterations) in 0.02 seconds
Thread count was 8 (of 8 available processors)

Optimal solution found (tolerance 1.00e-04)
Best objective 1.670488105413e+01, best bound 1.670488105413e+01, gap 0.0%

Wrote requested result file 'H1\instance6\\Results6EC_Sol2.lp'

